NAME: sample
TYPE: ATSP
COMMENT: 5 city problem
DIMENSION: 5
EDGE_WEIGHT_TYPE: EXPLICIT
EDGE_WEIGHT_FORMAT: FULL_MATRIX 
EDGE_WEIGHT_SECTION
9999 1 2 3 4
2 9999 4 3 2
1 4 9999 2 4
3 1 5 9999 8
10 11 8 2 9999
